qbf_easy_train/easy_3799_SAT.qdimacs
p cnf 21 51
a 16 6 0
e 1 2 3 4 5 7 8 9 10 11 12 13 14 15 17 18 19 20 21 0
1 -2 -3 0
-1 2 -3 0
1 2 3 0
-1 -2 3 0
-6 -4 0
-6 5 0
4 -5 6 0
6 4 -7 0
-6 -4 -7 0
6 -4 7 0
-6 4 7 0
-8 7 0
-8 -7 0
9 -3 0
9 -8 0
3 8 -9 0
10 -11 -12 0
-10 11 -12 0
10 11 12 0
-10 -11 12 0
13 5 -14 0
-13 -5 -14 0
13 -5 14 0
-13 5 14 0
-15 -12 0
-15 14 0
12 -14 15 0
-9 -15 -16 0
9 15 -16 0
-9 15 16 0
9 -15 16 0
-17 -5 -18 0
17 5 -18 0
-17 5 18 0
17 -5 18 0
16 18 -19 0
-16 -18 -19 0
16 -18 19 0
-16 18 19 0
-20 4 0
-20 -17 0
-4 17 20 0
21 19 0
21 20 0
-19 -20 -21 0
16 21 -1 -5 13 12 0
-4 -20 3 -21 17 8 0
20 9 2 5 16 -8 -7 0
5 14 20 15 13 0
-15 11 -12 0
21 0
