sat_easy_train/easy_3799_SAT.dimacs
p cnf 83 252
-1 2 0
1 2 0
-6 4 0
-6 -5 0
-4 5 6 0
7 -3 0
7 6 0
3 -6 -7 0
-8 1 -9 0
8 -1 -9 0
-8 -1 9 0
8 1 9 0
11 -10 0
11 -10 0
10 -11 0
13 11 0
13 12 0
-11 -12 -13 0
-9 13 -14 0
9 -13 -14 0
-9 -13 14 0
9 13 14 0
-17 15 0
-17 16 0
-15 -16 17 0
-18 -10 0
-18 1 0
10 -1 18 0
-1 -18 -19 0
1 18 -19 0
-1 18 19 0
1 -18 19 0
-20 15 0
-20 -3 0
-15 3 20 0
-21 19 0
-21 -20 0
-19 20 21 0
22 -17 0
22 -21 0
17 21 -22 0
23 -14 0
23 22 0
14 -22 -23 0
-24 4 -25 0
24 -4 -25 0
-24 -4 25 0
24 4 25 0
-27 28 -29 0
27 -28 -29 0
-27 -28 29 0
27 28 29 0
26 -29 -30 0
-26 29 -30 0
26 29 30 0
-26 -29 30 0
25 30 -31 0
-25 -30 -31 0
25 -30 31 0
-25 30 31 0
-33 -32 0
-33 32 0
-33 -3 -34 0
33 3 -34 0
-33 3 34 0
33 -3 34 0
35 27 0
35 -28 0
-27 28 -35 0
34 35 -36 0
-34 -35 -36 0
34 -35 36 0
-34 35 36 0
37 31 0
37 36 0
-31 -36 -37 0
38 23 0
38 -37 0
-23 37 -38 0
-39 7 0
-39 38 0
-7 -38 39 0
40 2 0
40 -39 0
-2 39 -40 0
20 -19 -41 0
-20 19 -41 0
20 19 41 0
-20 -19 41 0
8 42 -43 0
-8 -42 -43 0
8 -42 43 0
-8 42 43 0
44 -43 0
44 29 0
43 -29 -44 0
45 41 0
45 44 0
-41 -44 -45 0
46 40 0
46 -45 0
-40 45 -46 0
48 -11 0
48 47 0
11 -47 -48 0
49 48 0
49 -10 0
-48 10 -49 0
1 11 -50 0
-1 -11 -50 0
1 -11 50 0
-1 11 50 0
49 50 -51 0
-49 -50 -51 0
49 -50 51 0
-49 50 51 0
52 -49 0
52 -9 0
49 9 -52 0
-53 52 0
-53 27 0
-52 -27 53 0
-54 -8 0
-54 -27 0
8 27 54 0
-55 -26 0
-55 24 0
26 -24 55 0
54 -55 -56 0
-54 55 -56 0
54 55 56 0
-54 -55 56 0
-13 15 -57 0
13 -15 -57 0
-13 -15 57 0
13 15 57 0
58 -48 0
58 15 0
48 -15 -58 0
57 58 -59 0
-57 -58 -59 0
57 -58 59 0
-57 58 59 0
-60 -1 0
-60 35 0
1 -35 60 0
61 59 0
61 -60 0
-59 60 -61 0
-62 56 0
-62 61 0
-56 -61 62 0
63 -53 0
63 62 0
53 -62 -63 0
64 -51 0
64 63 0
51 -63 -64 0
-65 46 0
-65 -64 0
-46 64 65 0
-66 35 0
-66 -1 0
-35 1 66 0
67 -15 0
67 15 0
-27 24 -68 0
27 -24 -68 0
-27 -24 68 0
27 24 68 0
-69 28 0
-69 33 0
-28 -33 69 0
70 26 0
70 -69 0
-26 69 -70 0
71 -70 0
71 70 0
72 -68 0
72 -71 0
68 71 -72 0
67 -72 -73 0
-67 72 -73 0
67 72 73 0
-67 -72 73 0
74 -66 0
74 -73 0
66 73 -74 0
24 -47 -75 0
-24 47 -75 0
24 47 75 0
-24 -47 75 0
-76 4 0
-76 -75 0
-4 75 76 0
-77 -74 0
-77 -76 0
74 76 77 0
78 -3 0
78 -49 0
3 49 -78 0
79 -77 0
79 -78 0
77 78 -79 0
65 -79 -80 0
-65 79 -80 0
65 79 80 0
-65 -79 80 0
-81 70 0
-81 -25 0
-70 25 81 0
82 81 0
82 -34 0
-81 34 -82 0
-80 -82 -83 0
80 82 -83 0
-80 82 83 0
80 -82 83 0
14 41 -57 -47 11 0
-34 80 0
-72 -20 -68 0
75 3 42 12 0
-6 64 20 0
24 16 0
3 66 38 -80 78 0
8 -40 70 27 30 0
-61 -15 73 -27 42 -25 0
31 20 -37 58 63 -40 0
83 24 10 42 -9 0
-2 -40 50 44 -63 0
37 49 72 -61 -15 75 0
-2 64 54 0
-5 -43 -71 -49 80 0
-14 31 0
-48 40 72 0
-29 77 -68 49 0
34 46 15 -13 0
-73 31 0
-43 -21 31 -81 0
9 -67 0
62 -54 49 -76 0
-64 6 -55 -14 -25 33 0
-33 36 -35 0
66 65 0
-70 -79 -8 7 10 0
49 78 67 77 -11 0
-82 68 76 -57 74 0
-13 -60 36 -25 -2 0
18 24 -22 -17 58 0
-23 56 77 -16 -75 0
-9 20 -11 -57 0
83 0
